sat
(model
(define-fun |goto_symex::&92;guard#1| () Bool false)
(define-fun |goto_symex::&92;guard#2| () Bool false)
(define-fun |goto_symex::&92;guard#3| () Bool false)
(define-fun |goto_symex::&92;guard#4| () Bool false)
(define-fun |goto_symex::&92;guard#5| () Bool false)
(define-fun |goto_symex::&92;guard#6| () Bool false)
(define-fun |goto_symex::&92;guard#7| () Bool false)
(define-fun |goto_symex::&92;guard#8| () Bool false)
(define-fun |goto_symex::&92;guard#9| () Bool false)
(define-fun |goto_symex::&92;guard#10| () Bool false)
(define-fun |goto_symex::&92;guard#11| () Bool false)
(define-fun |goto_symex::&92;guard#12| () Bool false)
(define-fun |goto_symex::&92;guard#13| () Bool false)
(define-fun |goto_symex::&92;guard#14| () Bool false)
(define-fun |goto_symex::&92;guard#15| () Bool false)
(define-fun |goto_symex::&92;guard#16| () Bool false)
(define-fun |goto_symex::&92;guard#17| () Bool false)
(define-fun |goto_symex::&92;guard#18| () Bool false)
(define-fun |goto_symex::&92;guard#19| () Bool false)
(define-fun |goto_symex::&92;guard#20| () Bool false)
(define-fun |goto_symex::&92;guard#21| () Bool false)
(define-fun |goto_symex::&92;guard#22| () Bool false)
(define-fun |goto_symex::&92;guard#23| () Bool false)
(define-fun |goto_symex::&92;guard#24| () Bool false)
(define-fun |goto_symex::&92;guard#25| () Bool false)
(define-fun |goto_symex::&92;guard#26| () Bool false)
(define-fun |goto_symex::&92;guard#27| () Bool false)
(define-fun |goto_symex::&92;guard#28| () Bool false)
(define-fun |goto_symex::&92;guard#29| () Bool false)
(define-fun |goto_symex::&92;guard#30| () Bool false)
(define-fun |goto_symex::&92;guard#31| () Bool false)
(define-fun |goto_symex::&92;guard#32| () Bool false)
(define-fun |goto_symex::&92;guard#33| () Bool false)
(define-fun |goto_symex::&92;guard#34| () Bool false)
(define-fun |goto_symex::&92;guard#35| () Bool false)
(define-fun |goto_symex::&92;guard#36| () Bool false)
(define-fun |goto_symex::&92;guard#37| () Bool false)
(define-fun |goto_symex::&92;guard#38| () Bool false)
(define-fun |goto_symex::&92;guard#39| () Bool false)
(define-fun |goto_symex::&92;guard#40| () Bool false)
(define-fun |goto_symex::&92;guard#41| () Bool false)
(define-fun |goto_symex::&92;guard#42| () Bool false)
(define-fun |goto_symex::&92;guard#43| () Bool false)
(define-fun |goto_symex::&92;guard#44| () Bool false)
(define-fun |goto_symex::&92;guard#45| () Bool false)
(define-fun |goto_symex::&92;guard#46| () Bool false)
(define-fun |goto_symex::&92;guard#47| () Bool false)
(define-fun |goto_symex::&92;guard#48| () Bool false)
(define-fun |goto_symex::&92;guard#49| () Bool false)
(define-fun |goto_symex::&92;guard#50| () Bool false)
(define-fun |goto_symex::&92;guard#51| () Bool false)
(define-fun |goto_symex::&92;guard#52| () Bool false)
(define-fun |goto_symex::&92;guard#53| () Bool false)
(define-fun |goto_symex::&92;guard#54| () Bool false)
(define-fun |goto_symex::&92;guard#55| () Bool false)
(define-fun |goto_symex::&92;guard#56| () Bool false)
(define-fun |goto_symex::&92;guard#57| () Bool false)
(define-fun |goto_symex::&92;guard#58| () Bool false)
(define-fun |goto_symex::&92;guard#59| () Bool false)
(define-fun |goto_symex::&92;guard#60| () Bool false)
(define-fun |goto_symex::&92;guard#61| () Bool false)
(define-fun |goto_symex::&92;guard#62| () Bool false)
(define-fun |goto_symex::&92;guard#63| () Bool false)
(define-fun |goto_symex::&92;guard#64| () Bool false)
(define-fun |goto_symex::&92;guard#65| () Bool false)
(define-fun |goto_symex::&92;guard#66| () Bool false)
(define-fun |goto_symex::&92;guard#67| () Bool false)
(define-fun |goto_symex::&92;guard#68| () Bool false)
(define-fun |goto_symex::&92;guard#69| () Bool false)
(define-fun |goto_symex::&92;guard#70| () Bool false)
(define-fun |goto_symex::&92;guard#71| () Bool false)
(define-fun |goto_symex::&92;guard#72| () Bool false)
(define-fun |goto_symex::&92;guard#73| () Bool false)
(define-fun |goto_symex::&92;guard#74| () Bool false)
(define-fun |goto_symex::&92;guard#75| () Bool false)
(define-fun |goto_symex::&92;guard#76| () Bool false)
(define-fun |goto_symex::&92;guard#77| () Bool false)
(define-fun |goto_symex::&92;guard#78| () Bool false)
(define-fun |goto_symex::&92;guard#79| () Bool false)
(define-fun |goto_symex::&92;guard#80| () Bool false)
(define-fun |goto_symex::&92;guard#81| () Bool false)
(define-fun |goto_symex::&92;guard#82| () Bool false)
(define-fun |goto_symex::&92;guard#83| () Bool false)
(define-fun |goto_symex::&92;guard#84| () Bool false)
(define-fun |goto_symex::&92;guard#85| () Bool false)
(define-fun |goto_symex::&92;guard#86| () Bool false)
(define-fun |goto_symex::&92;guard#87| () Bool false)
(define-fun |goto_symex::&92;guard#88| () Bool false)
(define-fun |goto_symex::&92;guard#89| () Bool false)
(define-fun |goto_symex::&92;guard#90| () Bool false)
(define-fun |goto_symex::&92;guard#91| () Bool false)
(define-fun |goto_symex::&92;guard#92| () Bool false)
(define-fun |goto_symex::&92;guard#93| () Bool false)
(define-fun |goto_symex::&92;guard#94| () Bool false)
(define-fun |goto_symex::&92;guard#95| () Bool false)
(define-fun |goto_symex::&92;guard#96| () Bool false)
(define-fun |goto_symex::&92;guard#97| () Bool false)
(define-fun |goto_symex::&92;guard#98| () Bool false)
(define-fun |goto_symex::&92;guard#99| () Bool false)
(define-fun |goto_symex::&92;guard#100| () Bool false)
(define-fun |goto_symex::&92;guard#101| () Bool false)
(define-fun |goto_symex::&92;guard#102| () Bool false)
(define-fun |goto_symex::&92;guard#103| () Bool false)
(define-fun |goto_symex::&92;guard#104| () Bool false)
(define-fun |goto_symex::&92;guard#105| () Bool false)
(define-fun |goto_symex::&92;guard#106| () Bool false)
(define-fun |goto_symex::&92;guard#107| () Bool false)
(define-fun |goto_symex::&92;guard#108| () Bool false)
(define-fun |goto_symex::&92;guard#109| () Bool false)
(define-fun |goto_symex::&92;guard#110| () Bool false)
(define-fun |goto_symex::&92;guard#111| () Bool false)
(define-fun |goto_symex::&92;guard#112| () Bool false)
(define-fun |goto_symex::&92;guard#113| () Bool false)
(define-fun |goto_symex::&92;guard#114| () Bool false)
(define-fun |goto_symex::&92;guard#115| () Bool false)
(define-fun |goto_symex::&92;guard#116| () Bool false)
(define-fun |goto_symex::&92;guard#117| () Bool false)
(define-fun |goto_symex::&92;guard#118| () Bool false)
(define-fun |goto_symex::&92;guard#119| () Bool false)
(define-fun |goto_symex::&92;guard#120| () Bool false)
(define-fun |goto_symex::&92;guard#121| () Bool false)
(define-fun |goto_symex::&92;guard#122| () Bool false)
(define-fun |goto_symex::&92;guard#123| () Bool false)
(define-fun |goto_symex::&92;guard#124| () Bool false)
(define-fun |goto_symex::&92;guard#125| () Bool false)
(define-fun |goto_symex::&92;guard#126| () Bool false)
(define-fun |goto_symex::&92;guard#127| () Bool false)
(define-fun |goto_symex::&92;guard#128| () Bool false)
(define-fun |goto_symex::&92;guard#129| () Bool false)
(define-fun |goto_symex::&92;guard#130| () Bool false)
(define-fun |goto_symex::&92;guard#131| () Bool false)
(define-fun |goto_symex::&92;guard#132| () Bool false)
(define-fun |goto_symex::&92;guard#133| () Bool false)
(define-fun |goto_symex::&92;guard#134| () Bool false)
(define-fun |goto_symex::&92;guard#135| () Bool false)
(define-fun |goto_symex::&92;guard#136| () Bool false)
(define-fun |goto_symex::&92;guard#137| () Bool false)
(define-fun |goto_symex::&92;guard#138| () Bool false)
(define-fun |goto_symex::&92;guard#139| () Bool false)
(define-fun |goto_symex::&92;guard#140| () Bool false)
(define-fun |goto_symex::&92;guard#141| () Bool false)
(define-fun |goto_symex::&92;guard#142| () Bool false)
(define-fun |goto_symex::&92;guard#143| () Bool false)
(define-fun |goto_symex::&92;guard#144| () Bool false)
(define-fun |goto_symex::&92;guard#145| () Bool false)
(define-fun |goto_symex::&92;guard#146| () Bool false)
(define-fun |goto_symex::&92;guard#147| () Bool false)
(define-fun |goto_symex::&92;guard#148| () Bool false)
(define-fun |goto_symex::&92;guard#149| () Bool false)
(define-fun |goto_symex::&92;guard#150| () Bool false)
(define-fun |goto_symex::&92;guard#151| () Bool false)
(define-fun |goto_symex::&92;guard#152| () Bool false)
(define-fun |goto_symex::&92;guard#153| () Bool false)
(define-fun |goto_symex::&92;guard#154| () Bool false)
(define-fun |goto_symex::&92;guard#155| () Bool false)
(define-fun |goto_symex::&92;guard#156| () Bool false)
(define-fun |goto_symex::&92;guard#157| () Bool false)
(define-fun |goto_symex::&92;guard#158| () Bool false)
(define-fun |goto_symex::&92;guard#159| () Bool false)
(define-fun |goto_symex::&92;guard#160| () Bool false)
(define-fun |goto_symex::&92;guard#161| () Bool false)
(define-fun |goto_symex::&92;guard#162| () Bool false)
(define-fun |goto_symex::&92;guard#163| () Bool false)
(define-fun |goto_symex::&92;guard#164| () Bool false)
(define-fun |goto_symex::&92;guard#165| () Bool false)
(define-fun |goto_symex::&92;guard#166| () Bool false)
(define-fun |goto_symex::&92;guard#167| () Bool false)
(define-fun |goto_symex::&92;guard#168| () Bool false)
(define-fun |goto_symex::&92;guard#169| () Bool false)
(define-fun |goto_symex::&92;guard#170| () Bool false)
(define-fun |goto_symex::&92;guard#171| () Bool false)
(define-fun |goto_symex::&92;guard#172| () Bool false)
(define-fun |goto_symex::&92;guard#173| () Bool false)
(define-fun |goto_symex::&92;guard#174| () Bool false)
(define-fun |goto_symex::&92;guard#175| () Bool false)
(define-fun |goto_symex::&92;guard#176| () Bool false)
(define-fun |goto_symex::&92;guard#177| () Bool false)
(define-fun |goto_symex::&92;guard#178| () Bool false)
(define-fun |goto_symex::&92;guard#179| () Bool false)
(define-fun |goto_symex::&92;guard#180| () Bool false)
(define-fun |goto_symex::&92;guard#181| () Bool false)
(define-fun |goto_symex::&92;guard#182| () Bool false)
(define-fun |goto_symex::&92;guard#183| () Bool false)
(define-fun |goto_symex::&92;guard#184| () Bool false)
(define-fun |goto_symex::&92;guard#185| () Bool false)
(define-fun |goto_symex::&92;guard#186| () Bool false)
(define-fun |goto_symex::&92;guard#187| () Bool false)
(define-fun |goto_symex::&92;guard#188| () Bool false)
(define-fun |goto_symex::&92;guard#189| () Bool false)
(define-fun |goto_symex::&92;guard#190| () Bool false)
(define-fun |goto_symex::&92;guard#191| () Bool false)
(define-fun |goto_symex::&92;guard#192| () Bool false)
(define-fun |goto_symex::&92;guard#193| () Bool false)
(define-fun |goto_symex::&92;guard#194| () Bool false)
(define-fun |goto_symex::&92;guard#195| () Bool false)
(define-fun |goto_symex::&92;guard#196| () Bool false)
(define-fun |goto_symex::&92;guard#197| () Bool false)
(define-fun |goto_symex::&92;guard#198| () Bool false)
(define-fun |goto_symex::&92;guard#199| () Bool false)
(define-fun |goto_symex::&92;guard#200| () Bool false)
(define-fun |goto_symex::&92;guard#201| () Bool false)
(define-fun |goto_symex::&92;guard#202| () Bool false)
(define-fun |goto_symex::&92;guard#203| () Bool false)
(define-fun |goto_symex::&92;guard#204| () Bool false)
(define-fun |goto_symex::&92;guard#205| () Bool false)
(define-fun |goto_symex::&92;guard#206| () Bool false)
(define-fun |goto_symex::&92;guard#207| () Bool false)
(define-fun |goto_symex::&92;guard#208| () Bool false)
(define-fun |goto_symex::&92;guard#209| () Bool false)
(define-fun |goto_symex::&92;guard#210| () Bool false)
(define-fun |goto_symex::&92;guard#211| () Bool false)
(define-fun |goto_symex::&92;guard#212| () Bool false)
(define-fun |goto_symex::&92;guard#213| () Bool false)
(define-fun |goto_symex::&92;guard#214| () Bool false)
(define-fun |goto_symex::&92;guard#215| () Bool false)
(define-fun |goto_symex::&92;guard#216| () Bool false)
(define-fun |goto_symex::&92;guard#217| () Bool false)
(define-fun |goto_symex::&92;guard#218| () Bool false)
(define-fun |goto_symex::&92;guard#219| () Bool false)
(define-fun |goto_symex::&92;guard#220| () Bool false)
(define-fun |goto_symex::&92;guard#221| () Bool false)
(define-fun |goto_symex::&92;guard#222| () Bool false)
(define-fun |goto_symex::&92;guard#223| () Bool false)
(define-fun |goto_symex::&92;guard#224| () Bool false)
(define-fun |goto_symex::&92;guard#225| () Bool false)
(define-fun |goto_symex::&92;guard#226| () Bool false)
(define-fun |goto_symex::&92;guard#227| () Bool false)
(define-fun |goto_symex::&92;guard#228| () Bool false)
(define-fun |goto_symex::&92;guard#229| () Bool false)
(define-fun |goto_symex::&92;guard#230| () Bool false)
(define-fun |goto_symex::&92;guard#231| () Bool false)
(define-fun |goto_symex::&92;guard#232| () Bool false)
(define-fun |goto_symex::&92;guard#233| () Bool false)
(define-fun |goto_symex::&92;guard#234| () Bool false)
(define-fun |goto_symex::&92;guard#235| () Bool false)
(define-fun |goto_symex::&92;guard#236| () Bool false)
(define-fun |goto_symex::&92;guard#237| () Bool false)
(define-fun |goto_symex::&92;guard#238| () Bool false)
(define-fun |goto_symex::&92;guard#239| () Bool false)
(define-fun |goto_symex::&92;guard#240| () Bool false)
(define-fun |goto_symex::&92;guard#241| () Bool false)
(define-fun |goto_symex::&92;guard#242| () Bool false)
(define-fun |goto_symex::&92;guard#243| () Bool false)
(define-fun |goto_symex::&92;guard#244| () Bool false)
(define-fun |goto_symex::&92;guard#245| () Bool false)
(define-fun |goto_symex::&92;guard#246| () Bool false)
(define-fun |goto_symex::&92;guard#247| () Bool false)
(define-fun |goto_symex::&92;guard#248| () Bool false)
(define-fun |goto_symex::&92;guard#249| () Bool false)
(define-fun |goto_symex::&92;guard#250| () Bool false)
(define-fun |goto_symex::&92;guard#251| () Bool false)
(define-fun |goto_symex::&92;guard#252| () Bool false)
(define-fun |goto_symex::&92;guard#253| () Bool false)
(define-fun |goto_symex::&92;guard#254| () Bool false)
(define-fun |goto_symex::&92;guard#255| () Bool false)
(define-fun |goto_symex::&92;guard#256| () Bool false)
(define-fun |goto_symex::&92;guard#257| () Bool true)
(define-fun |goto_symex::&92;guard#258| () Bool false)
(define-fun |goto_symex::&92;guard#259| () Bool false)
(define-fun |goto_symex::&92;guard#260| () Bool false)
(define-fun |goto_symex::&92;guard#261| () Bool false)
(define-fun |goto_symex::&92;guard#262| () Bool false)
(define-fun |goto_symex::&92;guard#263| () Bool false)
(define-fun |goto_symex::&92;guard#264| () Bool false)
(define-fun |goto_symex::&92;guard#265| () Bool false)
(define-fun |goto_symex::&92;guard#266| () Bool false)
(define-fun |goto_symex::&92;guard#267| () Bool false)
(define-fun |goto_symex::&92;guard#268| () Bool false)
(define-fun |goto_symex::&92;guard#269| () Bool false)
(define-fun |goto_symex::&92;guard#270| () Bool false)
(define-fun |goto_symex::&92;guard#271| () Bool false)
(define-fun |goto_symex::&92;guard#272| () Bool false)
(define-fun |goto_symex::&92;guard#273| () Bool false)
(define-fun |goto_symex::&92;guard#274| () Bool false)
(define-fun |goto_symex::&92;guard#275| () Bool false)
(define-fun |goto_symex::&92;guard#276| () Bool false)
(define-fun |goto_symex::&92;guard#277| () Bool false)
(define-fun |goto_symex::&92;guard#278| () Bool false)
(define-fun |goto_symex::&92;guard#279| () Bool false)
(define-fun |goto_symex::&92;guard#280| () Bool false)
(define-fun |goto_symex::&92;guard#281| () Bool false)
(define-fun |goto_symex::&92;guard#282| () Bool false)
(define-fun |goto_symex::&92;guard#283| () Bool false)
(define-fun |goto_symex::&92;guard#284| () Bool false)
(define-fun |goto_symex::&92;guard#285| () Bool false)
(define-fun |goto_symex::&92;guard#286| () Bool false)
(define-fun |goto_symex::&92;guard#287| () Bool false)
(define-fun |goto_symex::&92;guard#288| () Bool false)
(define-fun |goto_symex::&92;guard#289| () Bool false)
(define-fun |goto_symex::&92;guard#290| () Bool false)
(define-fun |goto_symex::&92;guard#291| () Bool false)
(define-fun |goto_symex::&92;guard#292| () Bool false)
(define-fun |goto_symex::&92;guard#293| () Bool false)
(define-fun |goto_symex::&92;guard#294| () Bool false)
(define-fun |goto_symex::&92;guard#295| () Bool false)
(define-fun |goto_symex::&92;guard#296| () Bool false)
(define-fun |goto_symex::&92;guard#297| () Bool false)
(define-fun |goto_symex::&92;guard#298| () Bool false)
(define-fun |goto_symex::&92;guard#299| () Bool false)
(define-fun |goto_symex::&92;guard#300| () Bool false)
(define-fun |goto_symex::&92;guard#301| () Bool false)
(define-fun |goto_symex::&92;guard#302| () Bool false)
(define-fun |goto_symex::&92;guard#303| () Bool false)
(define-fun |goto_symex::&92;guard#304| () Bool false)
(define-fun |goto_symex::&92;guard#305| () Bool false)
(define-fun |goto_symex::&92;guard#306| () Bool false)
(define-fun |goto_symex::&92;guard#307| () Bool false)
(define-fun |goto_symex::&92;guard#308| () Bool false)
(define-fun |goto_symex::&92;guard#309| () Bool false)
(define-fun |goto_symex::&92;guard#310| () Bool false)
(define-fun |goto_symex::&92;guard#311| () Bool false)
(define-fun |goto_symex::&92;guard#312| () Bool false)
(define-fun |goto_symex::&92;guard#313| () Bool false)
(define-fun |goto_symex::&92;guard#314| () Bool false)
(define-fun |goto_symex::&92;guard#315| () Bool false)
(define-fun |goto_symex::&92;guard#316| () Bool false)
(define-fun |goto_symex::&92;guard#317| () Bool false)
(define-fun |goto_symex::&92;guard#318| () Bool false)
(define-fun |goto_symex::&92;guard#319| () Bool false)
(define-fun |goto_symex::&92;guard#320| () Bool false)
(define-fun |goto_symex::&92;guard#321| () Bool false)
(define-fun |goto_symex::&92;guard#322| () Bool false)
(define-fun |goto_symex::&92;guard#323| () Bool false)
(define-fun |goto_symex::&92;guard#324| () Bool false)
(define-fun |goto_symex::&92;guard#325| () Bool false)
(define-fun |goto_symex::&92;guard#326| () Bool false)
(define-fun |goto_symex::&92;guard#327| () Bool false)
(define-fun |goto_symex::&92;guard#328| () Bool false)
(define-fun |goto_symex::&92;guard#329| () Bool false)
(define-fun |goto_symex::&92;guard#330| () Bool false)
(define-fun |goto_symex::&92;guard#331| () Bool false)
(define-fun |goto_symex::&92;guard#332| () Bool false)
(define-fun |goto_symex::&92;guard#333| () Bool false)
(define-fun |goto_symex::&92;guard#334| () Bool false)
(define-fun |goto_symex::&92;guard#335| () Bool false)
(define-fun |goto_symex::&92;guard#336| () Bool false)
(define-fun |goto_symex::&92;guard#337| () Bool false)
(define-fun |goto_symex::&92;guard#338| () Bool false)
(define-fun |goto_symex::&92;guard#339| () Bool false)
(define-fun |goto_symex::&92;guard#340| () Bool true)
(define-fun array_of.0 () (Array (_ BitVec 32) (_ BitVec 1)) ((as const (Array (_ BitVec 32) (_ BitVec 1))) #b0))
(define-fun |main::1::t!0@1| () (_ BitVec 32) #b00000000000000000000000000000000)
(define-fun |__CPROVER_next_thread_id#3| () (_ BitVec 32) #b00000000000000000000000000000001)
(define-fun |__CPROVER_next_thread_id#6| () (_ BitVec 32) #b00000000000000000000000000000010)
(define-fun |__CPROVER_next_thread_id#9| () (_ BitVec 32) #b00000000000000000000000000000011)
(define-fun |pthread_create::1::this_thread_id!1@0#0| () (_ BitVec 32) #b00000000000000000000000000000000)
(define-fun |nondet_symex::nondet0| () (_ BitVec 32) #b00000000000000000000000000000000)
(define-fun |nondet_symex::nondet1| () (_ BitVec 32) #b00000000000000000000000000000000)
(define-fun |nondet_symex::nondet2| () (_ BitVec 32) #b00000000000000000000000000000000)
(define-fun |__CPROVER_threads_exited#2| () (Array (_ BitVec 32) (_ BitVec 1)) (store ((as const (Array (_ BitVec 32) (_ BitVec 1))) #b0) #b00000000000000000000000000000000 #b1))
(define-fun |pthread_create::1::this_thread_id!2@0#0| () (_ BitVec 32) #b00000000000000000000000000000000)
(define-fun |nondet_symex::nondet3| () (_ BitVec 32) #b00000000000000000000000000000000)
(define-fun |nondet_symex::nondet4| () (_ BitVec 32) #b00000000000000000000000000000000)
(define-fun |nondet_symex::nondet5| () (_ BitVec 32) #b00000000000000000000000000000000)
(define-fun |__CPROVER_threads_exited#4| () (Array (_ BitVec 32) (_ BitVec 1)) (store ((as const (Array (_ BitVec 32) (_ BitVec 1))) #b0) #b00000000000000000000000000000000 #b1))
(define-fun |pthread_create::1::this_thread_id!3@0#0| () (_ BitVec 32) #b00000000000000000000000000000000)
(define-fun |nondet_symex::nondet6| () (_ BitVec 32) #b00000000000000000000000000000000)
(define-fun |nondet_symex::nondet7| () (_ BitVec 32) #b00000000000000000000000000000000)
(define-fun |nondet_symex::nondet8| () (_ BitVec 32) #b00000000000000000000000000000000)
(define-fun |__CPROVER_threads_exited#6| () (Array (_ BitVec 32) (_ BitVec 1)) ((as const (Array (_ BitVec 32) (_ BitVec 1))) #b0))
(define-fun |pthread_create::1::this_thread_id!4@0#0| () (_ BitVec 32) #b00000000000000000000000000000000)
(define-fun |nondet_symex::nondet9| () (_ BitVec 32) #b00000000000000000000000000000000)
(define-fun |nondet_symex::nondet10| () (_ BitVec 32) #b00000000000000000000000000000010)
(define-fun |nondet_symex::nondet11| () (_ BitVec 32) #b00000000000000000000000000000000)
(define-fun |__CPROVER_threads_exited#8| () (Array (_ BitVec 32) (_ BitVec 1)) ((as const (Array (_ BitVec 32) (_ BitVec 1))) #b0))
(define-fun |main::1::t!0@1#1| () (_ BitVec 32) #b00000000000000000000000000000000)
(define-fun |pthread_create::1::this_thread_id!0@1#1| () (_ BitVec 32) #b00000000000000000000000000000000)
(define-fun |pthread_create::1::this_thread_id!0@2#1| () (_ BitVec 32) #b00000000000000000000000000000000)
(define-fun |pthread_create::1::this_thread_id!0@3#1| () (_ BitVec 32) #b00000000000000000000000000000000)
(define-fun |pthread_create::1::this_thread_id!0@4#1| () (_ BitVec 32) #b00000000000000000000000000000000)
(define-fun |thr1::1::x!1@1#1| () (_ BitVec 32) #b00000000000000000000000000000000)
(define-fun |thr1::1::y!1@1#1| () (_ BitVec 32) #b00000000000000000000000000000000)
(define-fun |thr1::1::z!1@1#1| () (_ BitVec 32) #b00000000000000000000000000000000)
(define-fun |thr1::1::i!1@1#1| () (_ BitVec 32) #b00000000000000000000000000000000)
(define-fun |thr1::1::j!1@1#1| () (_ BitVec 32) #b00000000000000000000000000000000)
(define-fun |thr1::1::k!1@1#1| () (_ BitVec 32) #b00000000000000000000000000000000)
(define-fun |thr1::1::x!2@1#1| () (_ BitVec 32) #b00000000000000000000000000000000)
(define-fun |thr1::1::y!2@1#1| () (_ BitVec 32) #b00000000000000000000000000000000)
(define-fun |thr1::1::z!2@1#1| () (_ BitVec 32) #b00000000000000000000000000000000)
(define-fun |thr1::1::i!2@1#1| () (_ BitVec 32) #b00000000000000000000000000000000)
(define-fun |thr1::1::j!2@1#1| () (_ BitVec 32) #b00000000000000000000000000000000)
(define-fun |thr1::1::k!2@1#1| () (_ BitVec 32) #b00000000000000000000000000000000)
(define-fun |thr1::1::x!3@1#1| () (_ BitVec 32) #b00000000000000000000000000000000)
(define-fun |thr1::1::y!3@1#1| () (_ BitVec 32) #b00000000000000000000000000000000)
(define-fun |thr1::1::z!3@1#1| () (_ BitVec 32) #b00000000000000000000000000000000)
(define-fun |thr1::1::i!3@1#1| () (_ BitVec 32) #b00000000000000000000000000000000)
(define-fun |thr1::1::j!3@1#1| () (_ BitVec 32) #b00000000000000000000000000000000)
(define-fun |thr1::1::k!3@1#1| () (_ BitVec 32) #b00000000000000000000000000000000)
(define-fun |thr1::1::x!4@1#1| () (_ BitVec 32) #b00000000000000000000000000000000)
(define-fun |thr1::1::y!4@1#1| () (_ BitVec 32) #b00000000000000000000000000000000)
(define-fun |thr1::1::z!4@1#1| () (_ BitVec 32) #b00000000000000000000000000000000)
(define-fun |thr1::1::i!4@1#1| () (_ BitVec 32) #b00000000000000000000000000000000)
(define-fun |thr1::1::j!4@1#1| () (_ BitVec 32) #b00000000000000000000000000000000)
(define-fun |thr1::1::k!4@1#1| () (_ BitVec 32) #b00000000000000000000000000000000)
(define-fun |memory_model::choice_rf_1_0_0_8_T_0| () Bool false)
(define-fun |__CPROVER_threads_exited#1$wclk$8| () (_ BitVec 6) #b010100)
(define-fun |__CPROVER_threads_exited#2$rclk$8| () (_ BitVec 6) #b110110)
(define-fun |memory_model::choice_rf_1_0_2_1_T_1| () Bool false)
(define-fun |__CPROVER_threads_exited#5$wclk$8| () (_ BitVec 6) #b111001)
(define-fun |memory_model::choice_rf_1_0_3_1_T_2| () Bool true)
(define-fun |__CPROVER_threads_exited#7$wclk$8| () (_ BitVec 6) #b110011)
(define-fun |memory_model::choice_rf_1_0_4_1_T_3| () Bool false)
(define-fun |__CPROVER_threads_exited#9$wclk$8| () (_ BitVec 6) #b110000)
(define-fun |memory_model::choice_rf_2_0_0_8_T_4| () Bool false)
(define-fun |__CPROVER_threads_exited#4$rclk$8| () (_ BitVec 6) #b110100)
(define-fun |memory_model::choice_rf_2_0_1_1_T_5| () Bool false)
(define-fun |__CPROVER_threads_exited#3$wclk$8| () (_ BitVec 6) #b111010)
(define-fun |memory_model::choice_rf_2_0_3_1_T_6| () Bool true)
(define-fun |memory_model::choice_rf_2_0_4_1_T_7| () Bool false)
(define-fun |memory_model::choice_rf_3_0_0_8_T_8| () Bool true)
(define-fun |__CPROVER_threads_exited#6$rclk$8| () (_ BitVec 6) #b101100)
(define-fun |memory_model::choice_rf_3_0_1_1_T_9| () Bool false)
(define-fun |memory_model::choice_rf_3_0_2_1_T_10| () Bool false)
(define-fun |memory_model::choice_rf_3_0_4_1_T_11| () Bool false)
(define-fun |memory_model::choice_rf_4_0_0_8_T_12| () Bool false)
(define-fun |__CPROVER_threads_exited#8$rclk$8| () (_ BitVec 6) #b101110)
(define-fun |memory_model::choice_rf_4_0_1_1_T_13| () Bool false)
(define-fun |memory_model::choice_rf_4_0_2_1_T_14| () Bool false)
(define-fun |memory_model::choice_rf_4_0_3_1_T_15| () Bool false)
(define-fun |memory_model::choice_rf_0_13_0_6_T_16| () Bool false)
(define-fun |memory_model::choice_rf_0_13_0_10_T_17| () Bool true)
(define-fun |memory_model::choice_rf_0_17_0_6_T_18| () Bool false)
(define-fun |memory_model::choice_rf_0_17_0_10_T_19| () Bool false)
(define-fun |memory_model::choice_rf_0_17_0_14_T_20| () Bool true)
(define-fun |memory_model::choice_rf_0_21_0_6_T_21| () Bool false)
(define-fun |memory_model::choice_rf_0_21_0_10_T_22| () Bool false)
(define-fun |memory_model::choice_rf_0_21_0_14_T_23| () Bool false)
(define-fun |memory_model::choice_rf_0_21_0_18_T_24| () Bool true)
(define-fun |memory_model::choice_ws-ext_0_8_1_1_T_25| () Bool true)
(define-fun |memory_model::choice_ws-ext_0_8_2_1_T_26| () Bool true)
(define-fun |memory_model::choice_ws-ext_0_8_3_1_T_27| () Bool true)
(define-fun |memory_model::choice_ws-ext_0_8_4_1_T_28| () Bool true)
(define-fun |memory_model::choice_ws-ext_1_1_2_1_T_29| () Bool false)
(define-fun |memory_model::choice_ws-ext_1_1_3_1_T_30| () Bool false)
(define-fun |memory_model::choice_ws-ext_1_1_4_1_T_31| () Bool false)
(define-fun |memory_model::choice_ws-ext_2_1_3_1_T_32| () Bool false)
(define-fun |memory_model::choice_ws-ext_2_1_4_1_T_33| () Bool false)
(define-fun |memory_model::choice_ws-ext_3_1_4_1_T_34| () Bool false)
(define-fun t1$12$spwnclk$8 () (_ BitVec 6) #b011000)
(define-fun t1$16$spwnclk$8 () (_ BitVec 6) #b011101)
(define-fun t1$20$spwnclk$8 () (_ BitVec 6) #b101010)
(define-fun t1$24$spwnclk$8 () (_ BitVec 6) #b101101)
(define-fun |__CPROVER_dead_object#1$wclk$8| () (_ BitVec 6) #b000000)
(define-fun |__CPROVER_deallocated#1$wclk$8| () (_ BitVec 6) #b000001)
(define-fun |__CPROVER_malloc_is_new_array#1$wclk$8| () (_ BitVec 6) #b000010)
(define-fun |__CPROVER_malloc_object#1$wclk$8| () (_ BitVec 6) #b001010)
(define-fun |__CPROVER_malloc_size#1$wclk$8| () (_ BitVec 6) #b001011)
(define-fun |__CPROVER_memory_leak#1$wclk$8| () (_ BitVec 6) #b001100)
(define-fun |__CPROVER_next_thread_id#1$wclk$8| () (_ BitVec 6) #b001101)
(define-fun |__CPROVER_pipe_count#1$wclk$8| () (_ BitVec 6) #b001110)
(define-fun |main::1::t!0@1#1$wclk$8| () (_ BitVec 6) #b010101)
(define-fun |__CPROVER_next_thread_id#2$wclk$8| () (_ BitVec 6) #b010110)
(define-fun |main::1::t!0@1#2$wclk$8| () (_ BitVec 6) #b010111)
(define-fun |__CPROVER_next_thread_id#3$rclk$8| () (_ BitVec 6) #b011001)
(define-fun |__CPROVER_next_thread_id#5$wclk$8| () (_ BitVec 6) #b011001)
(define-fun |main::1::t!0@1#3$wclk$8| () (_ BitVec 6) #b011010)
(define-fun |__CPROVER_next_thread_id#6$rclk$8| () (_ BitVec 6) #b011111)
(define-fun |__CPROVER_next_thread_id#8$wclk$8| () (_ BitVec 6) #b011111)
(define-fun |main::1::t!0@1#4$wclk$8| () (_ BitVec 6) #b100001)
(define-fun |__CPROVER_next_thread_id#9$rclk$8| () (_ BitVec 6) #b101011)
(define-fun |__CPROVER_next_thread_id#11$wclk$8| () (_ BitVec 6) #b101011)
(define-fun |main::1::t!0@1#5$wclk$8| () (_ BitVec 6) #b101100)
)

real	0m0.924s
user	0m0.912s
sys	0m0.011s
State: AC Run_time: 0.9258224964141846